100
150
100
100
99
98
96
96
95
94
94
94
93
93
93
93
91
91
91
90
90
89
89
87
87
87
87
85
84
84
84
83
82
81
81
81
80
79
79
78
78
77
77
77
75
75
74
74
74
74
69
68
68
67
67
65
65
64
63
61
59
59
58
58
58
58
57
56
55
55
55
54
54
53
53
52
51
50
50
50
49
49
48
48
48
48
47
47
43
43
42
40
40
39
37
37
35
34
34
33
31
30
